param n := 3;
set S[1] := 1 2 3 4 5 6 7 8 9 10;
set S[2] := 1 2 3 4 5 6 7 8 9 10;
set S[3] := 1 2 3 4 5 6 7 8 9 10;

param A :=
[*,1,1,1]  1 904 2 658 3 4
[*,2,1,1]  1 305 2 964 3 234
[*,3,1,1]  1 10 2 512 3 659
[*,4,1,1]  1 365 2 181 3 996
[*,5,1,1]  1 674 2 704 3 272
[*,6,1,1]  1 845 2 758 3 703
[*,7,1,1]  1 826 2 785 3 200
[*,8,1,1]  1 79 2 222 3 627
[*,9,1,1]  1 74 2 503 3 755
[*,10,1,1]  1 881 2 119 3 88
[*,1,2,1]  1 569 2 54 3 419
[*,2,2,1]  1 584 2 1 3 54
[*,3,2,1]  1 488 2 977 3 270
[*,4,2,1]  1 13 2 972 3 369
[*,5,2,1]  1 547 2 553 3 961
[*,6,2,1]  1 574 2 132 3 230
[*,7,2,1]  1 796 2 888 3 841
[*,8,2,1]  1 411 2 351 3 859
[*,9,2,1]  1 728 2 340 3 993
[*,10,2,1]  1 704 2 973 3 527
[*,1,3,1]  1 807 2 208 3 79
[*,2,3,1]  1 870 2 240 3 582
[*,3,3,1]  1 548 2 117 3 974
[*,4,3,1]  1 742 2 819 3 382
[*,5,3,1]  1 745 2 936 3 622
[*,6,3,1]  1 414 2 800 3 447
[*,7,3,1]  1 788 2 255 3 874
[*,8,3,1]  1 358 2 261 3 716
[*,9,3,1]  1 879 2 3 3 269
[*,10,3,1]  1 841 2 993 3 786
[*,1,4,1]  1 574 2 154 3 470
[*,2,4,1]  1 493 2 328 3 3
[*,3,4,1]  1 269 2 110 3 275
[*,4,4,1]  1 800 2 591 3 410
[*,5,4,1]  1 955 2 246 3 465
[*,6,4,1]  1 257 2 144 3 952
[*,7,4,1]  1 836 2 655 3 961
[*,8,4,1]  1 951 2 996 3 70
[*,9,4,1]  1 930 2 746 3 794
[*,10,4,1]  1 431 2 862 3 440
[*,1,5,1]  1 764 2 526 3 553
[*,2,5,1]  1 425 2 241 3 229
[*,3,5,1]  1 171 2 863 3 536
[*,4,5,1]  1 83 2 682 3 900
[*,5,5,1]  1 469 2 312 3 836
[*,6,5,1]  1 145 2 901 3 231
[*,7,5,1]  1 17 2 456 3 425
[*,8,5,1]  1 394 2 763 3 481
[*,9,5,1]  1 52 2 521 3 853
[*,10,5,1]  1 721 2 530 3 419
[*,1,6,1]  1 639 2 114 3 939
[*,2,6,1]  1 644 2 774 3 254
[*,3,6,1]  1 339 2 631 3 507
[*,4,6,1]  1 399 2 531 3 349
[*,5,6,1]  1 543 2 381 3 437
[*,6,6,1]  1 355 2 805 3 360
[*,7,6,1]  1 246 2 250 3 527
[*,8,6,1]  1 119 2 193 3 160
[*,9,6,1]  1 824 2 273 3 778
[*,10,6,1]  1 834 2 236 3 326
[*,1,7,1]  1 307 2 345 3 793
[*,2,7,1]  1 968 2 870 3 208
[*,3,7,1]  1 818 2 418 3 246
[*,4,7,1]  1 899 2 39 3 866
[*,5,7,1]  1 787 2 396 3 569
[*,6,7,1]  1 287 2 9 3 390
[*,7,7,1]  1 950 2 989 3 516
[*,8,7,1]  1 222 2 823 3 264
[*,9,7,1]  1 833 2 436 3 671
[*,10,7,1]  1 413 2 962 3 105
[*,1,8,1]  1 776 2 255 3 748
[*,2,8,1]  1 691 2 765 3 922
[*,3,8,1]  1 648 2 288 3 81
[*,4,8,1]  1 407 2 129 3 529
[*,5,8,1]  1 279 2 837 3 712
[*,6,8,1]  1 323 2 319 3 911
[*,7,8,1]  1 632 2 840 3 929
[*,8,8,1]  1 268 2 194 3 853
[*,9,8,1]  1 639 2 826 3 156
[*,10,8,1]  1 621 2 360 3 277
[*,1,9,1]  1 903 2 991 3 186
[*,2,9,1]  1 8 2 740 3 286
[*,3,9,1]  1 692 2 674 3 372
[*,4,9,1]  1 856 2 128 3 535
[*,5,9,1]  1 521 2 872 3 797
[*,6,9,1]  1 464 2 675 3 56
[*,7,9,1]  1 365 2 218 3 164
[*,8,9,1]  1 565 2 28 3 153
[*,9,9,1]  1 124 2 172 3 265
[*,10,9,1]  1 87 2 398 3 219
[*,1,10,1]  1 354 2 421 3 121
[*,2,10,1]  1 551 2 994 3 932
[*,3,10,1]  1 551 2 803 3 94
[*,4,10,1]  1 892 2 670 3 944
[*,5,10,1]  1 281 2 295 3 246
[*,6,10,1]  1 944 2 731 3 994
[*,7,10,1]  1 335 2 810 3 695
[*,8,10,1]  1 511 2 624 3 989
[*,9,10,1]  1 489 2 138 3 661
[*,10,10,1]  1 313 2 772 3 653
[*,1,1,2]  1 766 2 272 3 655
[*,2,1,2]  1 720 2 313 3 336
[*,3,1,2]  1 570 2 513 3 195
[*,4,1,2]  1 510 2 822 3 666
[*,5,1,2]  1 468 2 44 3 478
[*,6,1,2]  1 967 2 596 3 484
[*,7,1,2]  1 541 2 525 3 228
[*,8,1,2]  1 809 2 382 3 350
[*,9,1,2]  1 171 2 469 3 69
[*,10,1,2]  1 334 2 61 3 541
[*,1,2,2]  1 488 2 690 3 244
[*,2,2,2]  1 46 2 182 3 754
[*,3,2,2]  1 560 2 734 3 414
[*,4,2,2]  1 927 2 40 3 260
[*,5,2,2]  1 245 2 211 3 16
[*,6,2,2]  1 763 2 368 3 470
[*,7,2,2]  1 759 2 267 3 13
[*,8,2,2]  1 29 2 596 3 248
[*,9,2,2]  1 492 2 720 3 352
[*,10,2,2]  1 921 2 861 3 796
[*,1,3,2]  1 130 2 529 3 718
[*,2,3,2]  1 400 2 643 3 964
[*,3,3,2]  1 402 2 447 3 787
[*,4,3,2]  1 554 2 697 3 826
[*,5,3,2]  1 683 2 748 3 696
[*,6,3,2]  1 813 2 151 3 724
[*,7,3,2]  1 656 2 474 3 495
[*,8,3,2]  1 660 2 515 3 605
[*,9,3,2]  1 474 2 513 3 244
[*,10,3,2]  1 454 2 588 3 688
[*,1,4,2]  1 361 2 92 3 119
[*,2,4,2]  1 891 2 720 3 757
[*,3,4,2]  1 901 2 790 3 209
[*,4,4,2]  1 954 2 471 3 872
[*,5,4,2]  1 42 2 389 3 52
[*,6,4,2]  1 997 2 164 3 31
[*,7,4,2]  1 823 2 724 3 707
[*,8,4,2]  1 753 2 59 3 433
[*,9,4,2]  1 499 2 995 3 19
[*,10,4,2]  1 643 2 423 3 898
[*,1,5,2]  1 911 2 665 3 785
[*,2,5,2]  1 137 2 869 3 954
[*,3,5,2]  1 928 2 487 3 639
[*,4,5,2]  1 64 2 55 3 797
[*,5,5,2]  1 597 2 121 3 559
[*,6,5,2]  1 609 2 780 3 114
[*,7,5,2]  1 235 2 151 3 863
[*,8,5,2]  1 130 2 393 3 792
[*,9,5,2]  1 386 2 821 3 262
[*,10,5,2]  1 351 2 98 3 49
[*,1,6,2]  1 40 2 831 3 956
[*,2,6,2]  1 668 2 636 3 258
[*,3,6,2]  1 206 2 793 3 425
[*,4,6,2]  1 299 2 959 3 791
[*,5,6,2]  1 328 2 256 3 869
[*,6,6,2]  1 429 2 138 3 843
[*,7,6,2]  1 816 2 283 3 284
[*,8,6,2]  1 877 2 3 3 542
[*,9,6,2]  1 190 2 643 3 509
[*,10,6,2]  1 826 2 943 3 240
[*,1,7,2]  1 115 2 476 3 244
[*,2,7,2]  1 635 2 200 3 59
[*,3,7,2]  1 523 2 529 3 587
[*,4,7,2]  1 504 2 666 3 367
[*,5,7,2]  1 497 2 366 3 986
[*,6,7,2]  1 5 2 164 3 215
[*,7,7,2]  1 978 2 603 3 286
[*,8,7,2]  1 11 2 919 3 291
[*,9,7,2]  1 151 2 686 3 527
[*,10,7,2]  1 35 2 243 3 788
[*,1,8,2]  1 784 2 913 3 99
[*,2,8,2]  1 224 2 481 3 712
[*,3,8,2]  1 449 2 617 3 228
[*,4,8,2]  1 337 2 999 3 734
[*,5,8,2]  1 456 2 60 3 726
[*,6,8,2]  1 770 2 429 3 999
[*,7,8,2]  1 246 2 23 3 377
[*,8,8,2]  1 600 2 612 3 629
[*,9,8,2]  1 674 2 49 3 905
[*,10,8,2]  1 575 2 387 3 725
[*,1,9,2]  1 106 2 183 3 632
[*,2,9,2]  1 816 2 34 3 607
[*,3,9,2]  1 910 2 155 3 581
[*,4,9,2]  1 660 2 21 3 217
[*,5,9,2]  1 95 2 462 3 168
[*,6,9,2]  1 926 2 505 3 994
[*,7,9,2]  1 639 2 613 3 716
[*,8,9,2]  1 620 2 766 3 37
[*,9,9,2]  1 875 2 35 3 949
[*,10,9,2]  1 828 2 328 3 909
[*,1,10,2]  1 154 2 108 3 500
[*,2,10,2]  1 692 2 694 3 348
[*,3,10,2]  1 445 2 678 3 59
[*,4,10,2]  1 666 2 533 3 417
[*,5,10,2]  1 230 2 919 3 602
[*,6,10,2]  1 22 2 220 3 922
[*,7,10,2]  1 883 2 732 3 552
[*,8,10,2]  1 28 2 227 3 332
[*,9,10,2]  1 999 2 157 3 426
[*,10,10,2]  1 695 2 204 3 31
[*,1,1,3]  1 967 2 728 3 709
[*,2,1,3]  1 73 2 135 3 503
[*,3,1,3]  1 543 2 883 3 226
[*,4,1,3]  1 184 2 738 3 724
[*,5,1,3]  1 540 2 650 3 57
[*,6,1,3]  1 735 2 955 3 388
[*,7,1,3]  1 797 2 894 3 152
[*,8,1,3]  1 310 2 691 3 873
[*,9,1,3]  1 939 2 636 3 884
[*,10,1,3]  1 31 2 757 3 885
[*,1,2,3]  1 400 2 738 3 123
[*,2,2,3]  1 317 2 785 3 108
[*,3,2,3]  1 706 2 877 3 374
[*,4,2,3]  1 24 2 730 3 791
[*,5,2,3]  1 200 2 6 3 623
[*,6,2,3]  1 526 2 647 3 79
[*,7,2,3]  1 202 2 694 3 825
[*,8,2,3]  1 312 2 144 3 873
[*,9,2,3]  1 47 2 105 3 228
[*,10,2,3]  1 1000 2 971 3 609
[*,1,3,3]  1 606 2 192 3 694
[*,2,3,3]  1 901 2 373 3 360
[*,3,3,3]  1 559 2 658 3 823
[*,4,3,3]  1 953 2 505 3 121
[*,5,3,3]  1 93 2 545 3 553
[*,6,3,3]  1 56 2 334 3 739
[*,7,3,3]  1 403 2 306 3 142
[*,8,3,3]  1 21 2 195 3 248
[*,9,3,3]  1 787 2 820 3 205
[*,10,3,3]  1 155 2 641 3 977
[*,1,4,3]  1 592 2 6 3 331
[*,2,4,3]  1 263 2 379 3 796
[*,3,4,3]  1 340 2 339 3 504
[*,4,4,3]  1 731 2 182 3 808
[*,5,4,3]  1 134 2 30 3 829
[*,6,4,3]  1 589 2 422 3 199
[*,7,4,3]  1 738 2 885 3 555
[*,8,4,3]  1 790 2 726 3 420
[*,9,4,3]  1 240 2 610 3 906
[*,10,4,3]  1 485 2 729 3 310
[*,1,5,3]  1 110 2 543 3 140
[*,2,5,3]  1 53 2 518 3 796
[*,3,5,3]  1 76 2 728 3 713
[*,4,5,3]  1 193 2 490 3 755
[*,5,5,3]  1 999 2 771 3 346
[*,6,5,3]  1 128 2 649 3 130
[*,7,5,3]  1 855 2 718 3 657
[*,8,5,3]  1 78 2 978 3 251
[*,9,5,3]  1 698 2 190 3 450
[*,10,5,3]  1 622 2 272 3 79
[*,1,6,3]  1 786 2 353 3 403
[*,2,6,3]  1 687 2 611 3 87
[*,3,6,3]  1 846 2 790 3 178
[*,4,6,3]  1 973 2 516 3 215
[*,5,6,3]  1 125 2 682 3 678
[*,6,6,3]  1 977 2 364 3 578
[*,7,6,3]  1 557 2 651 3 491
[*,8,6,3]  1 266 2 157 3 827
[*,9,6,3]  1 257 2 326 3 495
[*,10,6,3]  1 410 2 454 3 554
[*,1,7,3]  1 910 2 866 3 32
[*,2,7,3]  1 451 2 837 3 256
[*,3,7,3]  1 389 2 996 3 203
[*,4,7,3]  1 44 2 544 3 987
[*,5,7,3]  1 633 2 212 3 362
[*,6,7,3]  1 347 2 748 3 179
[*,7,7,3]  1 56 2 834 3 173
[*,8,7,3]  1 381 2 966 3 538
[*,9,7,3]  1 289 2 157 3 6
[*,10,7,3]  1 396 2 388 3 714
[*,1,8,3]  1 240 2 707 3 642
[*,2,8,3]  1 601 2 738 3 291
[*,3,8,3]  1 234 2 40 3 278
[*,4,8,3]  1 511 2 50 3 903
[*,5,8,3]  1 436 2 848 3 574
[*,6,8,3]  1 905 2 343 3 74
[*,7,8,3]  1 29 2 807 3 692
[*,8,8,3]  1 412 2 322 3 11
[*,9,8,3]  1 577 2 190 3 77
[*,10,8,3]  1 980 2 437 3 665
[*,1,9,3]  1 881 2 321 3 628
[*,2,9,3]  1 643 2 896 3 218
[*,3,9,3]  1 170 2 469 3 131
[*,4,9,3]  1 119 2 794 3 756
[*,5,9,3]  1 33 2 251 3 716
[*,6,9,3]  1 962 2 498 3 580
[*,7,9,3]  1 499 2 533 3 69
[*,8,9,3]  1 280 2 943 3 900
[*,9,9,3]  1 867 2 655 3 192
[*,10,9,3]  1 9 2 756 3 718
[*,1,10,3]  1 172 2 479 3 356
[*,2,10,3]  1 314 2 997 3 665
[*,3,10,3]  1 755 2 761 3 221
[*,4,10,3]  1 128 2 234 3 448
[*,5,10,3]  1 698 2 34 3 851
[*,6,10,3]  1 765 2 288 3 9
[*,7,10,3]  1 482 2 996 3 898
[*,8,10,3]  1 844 2 811 3 563
[*,9,10,3]  1 141 2 216 3 785
[*,10,10,3]  1 71 2 411 3 327
[*,1,1,4]  1 266 2 174 3 318
[*,2,1,4]  1 903 2 966 3 164
[*,3,1,4]  1 253 2 550 3 258
[*,4,1,4]  1 566 2 289 3 845
[*,5,1,4]  1 130 2 703 3 783
[*,6,1,4]  1 876 2 366 3 406
[*,7,1,4]  1 788 2 150 3 42
[*,8,1,4]  1 535 2 843 3 935
[*,9,1,4]  1 529 2 975 3 783
[*,10,1,4]  1 129 2 511 3 124
[*,1,2,4]  1 978 2 697 3 985
[*,2,2,4]  1 656 2 778 3 551
[*,3,2,4]  1 784 2 516 3 60
[*,4,2,4]  1 529 2 955 3 701
[*,5,2,4]  1 406 2 768 3 242
[*,6,2,4]  1 367 2 907 3 334
[*,7,2,4]  1 972 2 172 3 528
[*,8,2,4]  1 467 2 907 3 607
[*,9,2,4]  1 722 2 149 3 997
[*,10,2,4]  1 253 2 285 3 16
[*,1,3,4]  1 511 2 503 3 439
[*,2,3,4]  1 807 2 723 3 349
[*,3,3,4]  1 821 2 653 3 194
[*,4,3,4]  1 208 2 306 3 521
[*,5,3,4]  1 704 2 650 3 623
[*,6,3,4]  1 4 2 42 3 76
[*,7,3,4]  1 286 2 524 3 205
[*,8,3,4]  1 88 2 688 3 672
[*,9,3,4]  1 30 2 303 3 109
[*,10,3,4]  1 101 2 921 3 858
[*,1,4,4]  1 986 2 875 3 122
[*,2,4,4]  1 686 2 61 3 648
[*,3,4,4]  1 960 2 932 3 899
[*,4,4,4]  1 388 2 543 3 558
[*,5,4,4]  1 834 2 612 3 726
[*,6,4,4]  1 242 2 632 3 260
[*,7,4,4]  1 500 2 205 3 22
[*,8,4,4]  1 421 2 609 3 459
[*,9,4,4]  1 761 2 52 3 871
[*,10,4,4]  1 297 2 105 3 781
[*,1,5,4]  1 613 2 538 3 403
[*,2,5,4]  1 589 2 631 3 155
[*,3,5,4]  1 983 2 940 3 333
[*,4,5,4]  1 458 2 715 3 455
[*,5,5,4]  1 31 2 887 3 408
[*,6,5,4]  1 787 2 907 3 843
[*,7,5,4]  1 654 2 726 3 802
[*,8,5,4]  1 711 2 898 3 902
[*,9,5,4]  1 851 2 364 3 238
[*,10,5,4]  1 674 2 909 3 2
[*,1,6,4]  1 947 2 915 3 919
[*,2,6,4]  1 132 2 742 3 440
[*,3,6,4]  1 609 2 866 3 633
[*,4,6,4]  1 792 2 379 3 471
[*,5,6,4]  1 539 2 898 3 857
[*,6,6,4]  1 298 2 943 3 913
[*,7,6,4]  1 346 2 784 3 562
[*,8,6,4]  1 213 2 302 3 225
[*,9,6,4]  1 403 2 41 3 83
[*,10,6,4]  1 405 2 561 3 830
[*,1,7,4]  1 412 2 970 3 846
[*,2,7,4]  1 567 2 396 3 636
[*,3,7,4]  1 641 2 869 3 494
[*,4,7,4]  1 959 2 389 3 628
[*,5,7,4]  1 521 2 378 3 778
[*,6,7,4]  1 181 2 618 3 707
[*,7,7,4]  1 976 2 968 3 163
[*,8,7,4]  1 50 2 266 3 545
[*,9,7,4]  1 731 2 389 3 30
[*,10,7,4]  1 652 2 562 3 701
[*,1,8,4]  1 304 2 739 3 466
[*,2,8,4]  1 547 2 92 3 1000
[*,3,8,4]  1 736 2 508 3 185
[*,4,8,4]  1 489 2 425 3 728
[*,5,8,4]  1 490 2 351 3 309
[*,6,8,4]  1 74 2 790 3 518
[*,7,8,4]  1 951 2 117 3 388
[*,8,8,4]  1 524 2 546 3 214
[*,9,8,4]  1 340 2 192 3 656
[*,10,8,4]  1 453 2 804 3 83
[*,1,9,4]  1 504 2 139 3 626
[*,2,9,4]  1 499 2 235 3 778
[*,3,9,4]  1 405 2 778 3 448
[*,4,9,4]  1 230 2 159 3 351
[*,5,9,4]  1 325 2 836 3 194
[*,6,9,4]  1 765 2 911 3 811
[*,7,9,4]  1 952 2 442 3 430
[*,8,9,4]  1 152 2 383 3 477
[*,9,9,4]  1 52 2 619 3 901
[*,10,9,4]  1 162 2 187 3 108
[*,1,10,4]  1 69 2 261 3 207
[*,2,10,4]  1 869 2 956 3 287
[*,3,10,4]  1 488 2 558 3 526
[*,4,10,4]  1 126 2 779 3 116
[*,5,10,4]  1 548 2 452 3 231
[*,6,10,4]  1 779 2 193 3 242
[*,7,10,4]  1 847 2 323 3 982
[*,8,10,4]  1 633 2 712 3 829
[*,9,10,4]  1 705 2 33 3 164
[*,10,10,4]  1 815 2 744 3 133
[*,1,1,5]  1 936 2 585 3 531
[*,2,1,5]  1 986 2 415 3 49
[*,3,1,5]  1 937 2 805 3 369
[*,4,1,5]  1 34 2 71 3 536
[*,5,1,5]  1 894 2 373 3 296
[*,6,1,5]  1 501 2 882 3 604
[*,7,1,5]  1 273 2 645 3 982
[*,8,1,5]  1 194 2 499 3 994
[*,9,1,5]  1 930 2 590 3 114
[*,10,1,5]  1 932 2 87 3 242
[*,1,2,5]  1 716 2 848 3 225
[*,2,2,5]  1 990 2 533 3 471
[*,3,2,5]  1 927 2 847 3 622
[*,4,2,5]  1 986 2 414 3 265
[*,5,2,5]  1 629 2 619 3 303
[*,6,2,5]  1 409 2 313 3 930
[*,7,2,5]  1 546 2 873 3 223
[*,8,2,5]  1 490 2 766 3 485
[*,9,2,5]  1 846 2 973 3 343
[*,10,2,5]  1 582 2 115 3 936
[*,1,3,5]  1 804 2 167 3 348
[*,2,3,5]  1 746 2 543 3 894
[*,3,3,5]  1 601 2 142 3 463
[*,4,3,5]  1 684 2 910 3 940
[*,5,3,5]  1 825 2 115 3 107
[*,6,3,5]  1 218 2 537 3 395
[*,7,3,5]  1 724 2 159 3 109
[*,8,3,5]  1 882 2 1000 3 372
[*,9,3,5]  1 722 2 603 3 156
[*,10,3,5]  1 142 2 228 3 180
[*,1,4,5]  1 922 2 556 3 374
[*,2,4,5]  1 867 2 737 3 852
[*,3,4,5]  1 254 2 181 3 225
[*,4,4,5]  1 679 2 781 3 734
[*,5,4,5]  1 246 2 156 3 990
[*,6,4,5]  1 417 2 335 3 760
[*,7,4,5]  1 74 2 71 3 377
[*,8,4,5]  1 105 2 404 3 121
[*,9,4,5]  1 135 2 628 3 184
[*,10,4,5]  1 423 2 669 3 21
[*,1,5,5]  1 24 2 771 3 688
[*,2,5,5]  1 36 2 489 3 60
[*,3,5,5]  1 673 2 917 3 556
[*,4,5,5]  1 131 2 896 3 308
[*,5,5,5]  1 41 2 666 3 556
[*,6,5,5]  1 954 2 252 3 366
[*,7,5,5]  1 911 2 865 3 516
[*,8,5,5]  1 809 2 599 3 948
[*,9,5,5]  1 797 2 998 3 402
[*,10,5,5]  1 260 2 287 3 661
[*,1,6,5]  1 296 2 152 3 734
[*,2,6,5]  1 776 2 980 3 586
[*,3,6,5]  1 270 2 599 3 20
[*,4,6,5]  1 803 2 689 3 767
[*,5,6,5]  1 392 2 349 3 416
[*,6,6,5]  1 647 2 445 3 178
[*,7,6,5]  1 930 2 183 3 297
[*,8,6,5]  1 198 2 16 3 921
[*,9,6,5]  1 199 2 142 3 16
[*,10,6,5]  1 795 2 720 3 104
[*,1,7,5]  1 209 2 497 3 445
[*,2,7,5]  1 424 2 562 3 937
[*,3,7,5]  1 496 2 857 3 322
[*,4,7,5]  1 395 2 347 3 122
[*,5,7,5]  1 392 2 439 3 316
[*,6,7,5]  1 6 2 957 3 588
[*,7,7,5]  1 636 2 157 3 592
[*,8,7,5]  1 9 2 173 3 584
[*,9,7,5]  1 958 2 217 3 725
[*,10,7,5]  1 678 2 237 3 893
[*,1,8,5]  1 319 2 245 3 657
[*,2,8,5]  1 444 2 78 3 651
[*,3,8,5]  1 816 2 837 3 45
[*,4,8,5]  1 681 2 35 3 611
[*,5,8,5]  1 804 2 123 3 612
[*,6,8,5]  1 672 2 880 3 415
[*,7,8,5]  1 710 2 637 3 663
[*,8,8,5]  1 896 2 570 3 65
[*,9,8,5]  1 32 2 354 3 877
[*,10,8,5]  1 819 2 965 3 597
[*,1,9,5]  1 418 2 233 3 152
[*,2,9,5]  1 690 2 604 3 473
[*,3,9,5]  1 37 2 393 3 49
[*,4,9,5]  1 682 2 767 3 43
[*,5,9,5]  1 136 2 91 3 257
[*,6,9,5]  1 830 2 460 3 252
[*,7,9,5]  1 943 2 935 3 79
[*,8,9,5]  1 931 2 816 3 530
[*,9,9,5]  1 738 2 49 3 29
[*,10,9,5]  1 960 2 641 3 215
[*,1,10,5]  1 705 2 752 3 877
[*,2,10,5]  1 32 2 555 3 286
[*,3,10,5]  1 287 2 384 3 607
[*,4,10,5]  1 36 2 457 3 328
[*,5,10,5]  1 608 2 324 3 490
[*,6,10,5]  1 47 2 665 3 428
[*,7,10,5]  1 424 2 569 3 293
[*,8,10,5]  1 690 2 439 3 588
[*,9,10,5]  1 328 2 24 3 524
[*,10,10,5]  1 797 2 83 3 825
[*,1,1,6]  1 877 2 575 3 734
[*,2,1,6]  1 823 2 132 3 750
[*,3,1,6]  1 155 2 888 3 438
[*,4,1,6]  1 429 2 332 3 112
[*,5,1,6]  1 522 2 564 3 43
[*,6,1,6]  1 771 2 154 3 994
[*,7,1,6]  1 710 2 905 3 821
[*,8,1,6]  1 206 2 189 3 369
[*,9,1,6]  1 1 2 959 3 824
[*,10,1,6]  1 125 2 188 3 179
[*,1,2,6]  1 220 2 456 3 644
[*,2,2,6]  1 304 2 98 3 575
[*,3,2,6]  1 978 2 304 3 37
[*,4,2,6]  1 777 2 774 3 182
[*,5,2,6]  1 88 2 881 3 910
[*,6,2,6]  1 633 2 52 3 234
[*,7,2,6]  1 676 2 930 3 677
[*,8,2,6]  1 935 2 506 3 784
[*,9,2,6]  1 144 2 267 3 927
[*,10,2,6]  1 123 2 8 3 558
[*,1,3,6]  1 338 2 258 3 176
[*,2,3,6]  1 794 2 367 3 855
[*,3,3,6]  1 605 2 377 3 823
[*,4,3,6]  1 538 2 151 3 332
[*,5,3,6]  1 742 2 662 3 395
[*,6,3,6]  1 147 2 614 3 15
[*,7,3,6]  1 340 2 149 3 647
[*,8,3,6]  1 778 2 586 3 18
[*,9,3,6]  1 836 2 45 3 960
[*,10,3,6]  1 576 2 692 3 634
[*,1,4,6]  1 609 2 479 3 703
[*,2,4,6]  1 688 2 244 3 826
[*,3,4,6]  1 7 2 789 3 579
[*,4,4,6]  1 958 2 271 3 934
[*,5,4,6]  1 974 2 947 3 502
[*,6,4,6]  1 707 2 987 3 341
[*,7,4,6]  1 353 2 455 3 811
[*,8,4,6]  1 766 2 505 3 65
[*,9,4,6]  1 567 2 870 3 871
[*,10,4,6]  1 202 2 16 3 932
[*,1,5,6]  1 702 2 518 3 569
[*,2,5,6]  1 174 2 152 3 373
[*,3,5,6]  1 374 2 435 3 491
[*,4,5,6]  1 84 2 867 3 426
[*,5,5,6]  1 953 2 578 3 421
[*,6,5,6]  1 200 2 169 3 592
[*,7,5,6]  1 627 2 845 3 214
[*,8,5,6]  1 240 2 296 3 632
[*,9,5,6]  1 585 2 859 3 496
[*,10,5,6]  1 54 2 834 3 523
[*,1,6,6]  1 804 2 211 3 155
[*,2,6,6]  1 519 2 492 3 12
[*,3,6,6]  1 965 2 365 3 518
[*,4,6,6]  1 514 2 386 3 692
[*,5,6,6]  1 90 2 525 3 612
[*,6,6,6]  1 382 2 7 3 273
[*,7,6,6]  1 303 2 906 3 180
[*,8,6,6]  1 562 2 549 3 726
[*,9,6,6]  1 522 2 322 3 421
[*,10,6,6]  1 951 2 869 3 874
[*,1,7,6]  1 821 2 176 3 715
[*,2,7,6]  1 566 2 156 3 599
[*,3,7,6]  1 329 2 640 3 351
[*,4,7,6]  1 22 2 233 3 317
[*,5,7,6]  1 831 2 354 3 153
[*,6,7,6]  1 152 2 436 3 542
[*,7,7,6]  1 257 2 617 3 648
[*,8,7,6]  1 670 2 923 3 748
[*,9,7,6]  1 122 2 122 3 336
[*,10,7,6]  1 421 2 298 3 293
[*,1,8,6]  1 936 2 510 3 757
[*,2,8,6]  1 316 2 75 3 730
[*,3,8,6]  1 84 2 681 3 326
[*,4,8,6]  1 439 2 226 3 408
[*,5,8,6]  1 527 2 67 3 708
[*,6,8,6]  1 655 2 998 3 117
[*,7,8,6]  1 640 2 259 3 370
[*,8,8,6]  1 879 2 117 3 711
[*,9,8,6]  1 116 2 83 3 500
[*,10,8,6]  1 512 2 183 3 755
[*,1,9,6]  1 54 2 681 3 81
[*,2,9,6]  1 407 2 605 3 430
[*,3,9,6]  1 429 2 553 3 201
[*,4,9,6]  1 653 2 214 3 220
[*,5,9,6]  1 224 2 947 3 960
[*,6,9,6]  1 813 2 73 3 334
[*,7,9,6]  1 606 2 159 3 299
[*,8,9,6]  1 702 2 124 3 61
[*,9,9,6]  1 39 2 284 3 822
[*,10,9,6]  1 996 2 705 3 135
[*,1,10,6]  1 823 2 872 3 130
[*,2,10,6]  1 689 2 447 3 912
[*,3,10,6]  1 825 2 924 3 83
[*,4,10,6]  1 797 2 521 3 605
[*,5,10,6]  1 653 2 176 3 974
[*,6,10,6]  1 327 2 989 3 536
[*,7,10,6]  1 830 2 845 3 254
[*,8,10,6]  1 204 2 432 3 226
[*,9,10,6]  1 45 2 949 3 642
[*,10,10,6]  1 943 2 970 3 243
[*,1,1,7]  1 102 2 918 3 310
[*,2,1,7]  1 774 2 876 3 854
[*,3,1,7]  1 824 2 158 3 76
[*,4,1,7]  1 967 2 883 3 183
[*,5,1,7]  1 921 2 334 3 920
[*,6,1,7]  1 81 2 618 3 655
[*,7,1,7]  1 569 2 506 3 660
[*,8,1,7]  1 168 2 23 3 882
[*,9,1,7]  1 334 2 835 3 811
[*,10,1,7]  1 771 2 794 3 665
[*,1,2,7]  1 672 2 731 3 552
[*,2,2,7]  1 246 2 213 3 901
[*,3,2,7]  1 96 2 111 3 768
[*,4,2,7]  1 211 2 185 3 579
[*,5,2,7]  1 256 2 683 3 507
[*,6,2,7]  1 90 2 856 3 742
[*,7,2,7]  1 583 2 855 3 3
[*,8,2,7]  1 886 2 193 3 864
[*,9,2,7]  1 547 2 285 3 159
[*,10,2,7]  1 901 2 917 3 127
[*,1,3,7]  1 992 2 219 3 797
[*,2,3,7]  1 591 2 803 3 997
[*,3,3,7]  1 92 2 356 3 858
[*,4,3,7]  1 476 2 994 3 448
[*,5,3,7]  1 344 2 975 3 494
[*,6,3,7]  1 63 2 230 3 570
[*,7,3,7]  1 58 2 698 3 598
[*,8,3,7]  1 327 2 36 3 592
[*,9,3,7]  1 444 2 389 3 21
[*,10,3,7]  1 987 2 755 3 128
[*,1,4,7]  1 588 2 151 3 605
[*,2,4,7]  1 793 2 780 3 507
[*,3,4,7]  1 135 2 819 3 219
[*,4,4,7]  1 392 2 538 3 985
[*,5,4,7]  1 993 2 200 3 574
[*,6,4,7]  1 152 2 290 3 679
[*,7,4,7]  1 746 2 167 3 319
[*,8,4,7]  1 169 2 969 3 847
[*,9,4,7]  1 210 2 399 3 480
[*,10,4,7]  1 652 2 457 3 298
[*,1,5,7]  1 744 2 768 3 934
[*,2,5,7]  1 931 2 356 3 860
[*,3,5,7]  1 694 2 288 3 259
[*,4,5,7]  1 656 2 551 3 143
[*,5,5,7]  1 127 2 872 3 922
[*,6,5,7]  1 637 2 433 3 733
[*,7,5,7]  1 528 2 521 3 532
[*,8,5,7]  1 466 2 322 3 261
[*,9,5,7]  1 98 2 723 3 457
[*,10,5,7]  1 293 2 352 3 823
[*,1,6,7]  1 187 2 783 3 857
[*,2,6,7]  1 87 2 367 3 179
[*,3,6,7]  1 68 2 305 3 568
[*,4,6,7]  1 695 2 459 3 527
[*,5,6,7]  1 957 2 604 3 780
[*,6,6,7]  1 7 2 727 3 909
[*,7,6,7]  1 970 2 56 3 312
[*,8,6,7]  1 502 2 254 3 994
[*,9,6,7]  1 583 2 409 3 251
[*,10,6,7]  1 195 2 949 3 83
[*,1,7,7]  1 269 2 395 3 619
[*,2,7,7]  1 22 2 515 3 82
[*,3,7,7]  1 258 2 151 3 651
[*,4,7,7]  1 794 2 952 3 515
[*,5,7,7]  1 990 2 557 3 689
[*,6,7,7]  1 860 2 620 3 584
[*,7,7,7]  1 528 2 530 3 939
[*,8,7,7]  1 517 2 259 3 11
[*,9,7,7]  1 374 2 213 3 640
[*,10,7,7]  1 83 2 582 3 90
[*,1,8,7]  1 200 2 255 3 30
[*,2,8,7]  1 492 2 239 3 626
[*,3,8,7]  1 667 2 444 3 851
[*,4,8,7]  1 812 2 339 3 397
[*,5,8,7]  1 735 2 888 3 722
[*,6,8,7]  1 254 2 109 3 572
[*,7,8,7]  1 788 2 49 3 244
[*,8,8,7]  1 19 2 251 3 157
[*,9,8,7]  1 31 2 697 3 20
[*,10,8,7]  1 771 2 499 3 737
[*,1,9,7]  1 402 2 727 3 411
[*,2,9,7]  1 78 2 695 3 429
[*,3,9,7]  1 872 2 492 3 866
[*,4,9,7]  1 775 2 424 3 259
[*,5,9,7]  1 181 2 463 3 213
[*,6,9,7]  1 880 2 36 3 33
[*,7,9,7]  1 657 2 707 3 743
[*,8,9,7]  1 288 2 478 3 786
[*,9,9,7]  1 686 2 507 3 121
[*,10,9,7]  1 522 2 100 3 995
[*,1,10,7]  1 327 2 5 3 698
[*,2,10,7]  1 65 2 69 3 961
[*,3,10,7]  1 512 2 524 3 179
[*,4,10,7]  1 325 2 607 3 56
[*,5,10,7]  1 697 2 389 3 782
[*,6,10,7]  1 737 2 407 3 309
[*,7,10,7]  1 971 2 1 3 79
[*,8,10,7]  1 519 2 820 3 61
[*,9,10,7]  1 642 2 268 3 849
[*,10,10,7]  1 676 2 895 3 46
[*,1,1,8]  1 662 2 640 3 389
[*,2,1,8]  1 157 2 908 3 115
[*,3,1,8]  1 797 2 59 3 99
[*,4,1,8]  1 151 2 419 3 394
[*,5,1,8]  1 909 2 361 3 497
[*,6,1,8]  1 817 2 290 3 734
[*,7,1,8]  1 628 2 821 3 615
[*,8,1,8]  1 984 2 900 3 779
[*,9,1,8]  1 24 2 689 3 340
[*,10,1,8]  1 320 2 380 3 693
[*,1,2,8]  1 868 2 981 3 513
[*,2,2,8]  1 890 2 248 3 798
[*,3,2,8]  1 936 2 585 3 452
[*,4,2,8]  1 132 2 865 3 58
[*,5,2,8]  1 450 2 549 3 144
[*,6,2,8]  1 822 2 668 3 45
[*,7,2,8]  1 636 2 363 3 297
[*,8,2,8]  1 215 2 757 3 798
[*,9,2,8]  1 146 2 260 3 89
[*,10,2,8]  1 985 2 998 3 852
[*,1,3,8]  1 411 2 98 3 250
[*,2,3,8]  1 975 2 79 3 596
[*,3,3,8]  1 199 2 815 3 425
[*,4,3,8]  1 787 2 474 3 647
[*,5,3,8]  1 691 2 920 3 983
[*,6,3,8]  1 480 2 130 3 845
[*,7,3,8]  1 229 2 881 3 21
[*,8,3,8]  1 797 2 10 3 18
[*,9,3,8]  1 776 2 789 3 320
[*,10,3,8]  1 465 2 773 3 438
[*,1,4,8]  1 742 2 713 3 270
[*,2,4,8]  1 781 2 726 3 663
[*,3,4,8]  1 526 2 783 3 969
[*,4,4,8]  1 578 2 279 3 790
[*,5,4,8]  1 484 2 138 3 853
[*,6,4,8]  1 151 2 91 3 233
[*,7,4,8]  1 451 2 579 3 790
[*,8,4,8]  1 109 2 662 3 596
[*,9,4,8]  1 858 2 308 3 792
[*,10,4,8]  1 601 2 624 3 609
[*,1,5,8]  1 415 2 652 3 527
[*,2,5,8]  1 836 2 448 3 76
[*,3,5,8]  1 494 2 957 3 114
[*,4,5,8]  1 390 2 655 3 394
[*,5,5,8]  1 432 2 824 3 131
[*,6,5,8]  1 811 2 201 3 966
[*,7,5,8]  1 962 2 971 3 51
[*,8,5,8]  1 628 2 210 3 407
[*,9,5,8]  1 773 2 79 3 993
[*,10,5,8]  1 793 2 57 3 212
[*,1,6,8]  1 430 2 853 3 735
[*,2,6,8]  1 28 2 523 3 616
[*,3,6,8]  1 797 2 100 3 553
[*,4,6,8]  1 593 2 821 3 269
[*,5,6,8]  1 917 2 204 3 867
[*,6,6,8]  1 931 2 197 3 401
[*,7,6,8]  1 588 2 683 3 899
[*,8,6,8]  1 985 2 59 3 16
[*,9,6,8]  1 509 2 515 3 807
[*,10,6,8]  1 945 2 443 3 133
[*,1,7,8]  1 606 2 206 3 12
[*,2,7,8]  1 782 2 884 3 698
[*,3,7,8]  1 736 2 558 3 998
[*,4,7,8]  1 342 2 234 3 923
[*,5,7,8]  1 202 2 436 3 421
[*,6,7,8]  1 532 2 891 3 871
[*,7,7,8]  1 937 2 278 3 540
[*,8,7,8]  1 294 2 584 3 960
[*,9,7,8]  1 879 2 411 3 30
[*,10,7,8]  1 658 2 951 3 146
[*,1,8,8]  1 186 2 519 3 145
[*,2,8,8]  1 307 2 510 3 141
[*,3,8,8]  1 748 2 709 3 896
[*,4,8,8]  1 156 2 258 3 506
[*,5,8,8]  1 994 2 957 3 506
[*,6,8,8]  1 560 2 532 3 689
[*,7,8,8]  1 649 2 275 3 682
[*,8,8,8]  1 804 2 191 3 264
[*,9,8,8]  1 576 2 488 3 517
[*,10,8,8]  1 577 2 848 3 208
[*,1,9,8]  1 855 2 10 3 461
[*,2,9,8]  1 494 2 202 3 152
[*,3,9,8]  1 160 2 810 3 500
[*,4,9,8]  1 461 2 581 3 37
[*,5,9,8]  1 278 2 604 3 442
[*,6,9,8]  1 663 2 35 3 719
[*,7,9,8]  1 255 2 219 3 900
[*,8,9,8]  1 47 2 691 3 937
[*,9,9,8]  1 452 2 596 3 69
[*,10,9,8]  1 827 2 168 3 105
[*,1,10,8]  1 433 2 611 3 631
[*,2,10,8]  1 610 2 335 3 29
[*,3,10,8]  1 523 2 324 3 764
[*,4,10,8]  1 40 2 400 3 388
[*,5,10,8]  1 601 2 345 3 455
[*,6,10,8]  1 292 2 636 3 504
[*,7,10,8]  1 767 2 389 3 428
[*,8,10,8]  1 604 2 36 3 15
[*,9,10,8]  1 242 2 92 3 445
[*,10,10,8]  1 138 2 894 3 915
[*,1,1,9]  1 46 2 366 3 561
[*,2,1,9]  1 548 2 85 3 390
[*,3,1,9]  1 527 2 853 3 713
[*,4,1,9]  1 628 2 416 3 936
[*,5,1,9]  1 847 2 895 3 624
[*,6,1,9]  1 379 2 343 3 463
[*,7,1,9]  1 611 2 237 3 211
[*,8,1,9]  1 698 2 164 3 210
[*,9,1,9]  1 353 2 843 3 987
[*,10,1,9]  1 244 2 172 3 148
[*,1,2,9]  1 778 2 634 3 470
[*,2,2,9]  1 736 2 473 3 361
[*,3,2,9]  1 210 2 35 3 470
[*,4,2,9]  1 18 2 135 3 617
[*,5,2,9]  1 474 2 183 3 682
[*,6,2,9]  1 540 2 60 3 483
[*,7,2,9]  1 358 2 89 3 168
[*,8,2,9]  1 955 2 529 3 919
[*,9,2,9]  1 545 2 488 3 567
[*,10,2,9]  1 172 2 548 3 285
[*,1,3,9]  1 451 2 96 3 845
[*,2,3,9]  1 325 2 196 3 55
[*,3,3,9]  1 290 2 718 3 927
[*,4,3,9]  1 592 2 628 3 738
[*,5,3,9]  1 56 2 377 3 787
[*,6,3,9]  1 31 2 739 3 471
[*,7,3,9]  1 187 2 180 3 740
[*,8,3,9]  1 312 2 912 3 379
[*,9,3,9]  1 895 2 217 3 563
[*,10,3,9]  1 426 2 591 3 34
[*,1,4,9]  1 365 2 632 3 84
[*,2,4,9]  1 727 2 374 3 543
[*,3,4,9]  1 997 2 349 3 671
[*,4,4,9]  1 531 2 67 3 845
[*,5,4,9]  1 68 2 451 3 39
[*,6,4,9]  1 548 2 162 3 527
[*,7,4,9]  1 647 2 110 3 536
[*,8,4,9]  1 565 2 758 3 780
[*,9,4,9]  1 533 2 407 3 111
[*,10,4,9]  1 648 2 310 3 247
[*,1,5,9]  1 553 2 500 3 797
[*,2,5,9]  1 80 2 288 3 372
[*,3,5,9]  1 802 2 77 3 502
[*,4,5,9]  1 791 2 725 3 129
[*,5,5,9]  1 619 2 933 3 272
[*,6,5,9]  1 153 2 593 3 607
[*,7,5,9]  1 95 2 993 3 882
[*,8,5,9]  1 87 2 512 3 937
[*,9,5,9]  1 166 2 244 3 348
[*,10,5,9]  1 902 2 473 3 406
[*,1,6,9]  1 426 2 363 3 64
[*,2,6,9]  1 585 2 469 3 914
[*,3,6,9]  1 373 2 506 3 978
[*,4,6,9]  1 210 2 272 3 919
[*,5,6,9]  1 171 2 673 3 212
[*,6,6,9]  1 226 2 208 3 968
[*,7,6,9]  1 64 2 395 3 739
[*,8,6,9]  1 762 2 67 3 423
[*,9,6,9]  1 286 2 689 3 920
[*,10,6,9]  1 397 2 85 3 742
[*,1,7,9]  1 881 2 316 3 788
[*,2,7,9]  1 569 2 743 3 399
[*,3,7,9]  1 869 2 258 3 664
[*,4,7,9]  1 558 2 670 3 233
[*,5,7,9]  1 141 2 100 3 752
[*,6,7,9]  1 829 2 862 3 447
[*,7,7,9]  1 646 2 978 3 783
[*,8,7,9]  1 894 2 131 3 157
[*,9,7,9]  1 527 2 969 3 914
[*,10,7,9]  1 449 2 123 3 962
[*,1,8,9]  1 916 2 107 3 207
[*,2,8,9]  1 589 2 449 3 498
[*,3,8,9]  1 984 2 554 3 200
[*,4,8,9]  1 690 2 685 3 971
[*,5,8,9]  1 320 2 203 3 790
[*,6,8,9]  1 250 2 895 3 681
[*,7,8,9]  1 952 2 39 3 726
[*,8,8,9]  1 292 2 463 3 257
[*,9,8,9]  1 666 2 720 3 86
[*,10,8,9]  1 86 2 722 3 462
[*,1,9,9]  1 245 2 35 3 748
[*,2,9,9]  1 30 2 911 3 811
[*,3,9,9]  1 840 2 322 3 976
[*,4,9,9]  1 814 2 478 3 91
[*,5,9,9]  1 577 2 508 3 47
[*,6,9,9]  1 964 2 587 3 795
[*,7,9,9]  1 619 2 906 3 478
[*,8,9,9]  1 795 2 773 3 379
[*,9,9,9]  1 841 2 86 3 815
[*,10,9,9]  1 699 2 125 3 583
[*,1,10,9]  1 937 2 230 3 575
[*,2,10,9]  1 677 2 756 3 186
[*,3,10,9]  1 898 2 194 3 201
[*,4,10,9]  1 697 2 979 3 1
[*,5,10,9]  1 878 2 756 3 783
[*,6,10,9]  1 818 2 905 3 400
[*,7,10,9]  1 668 2 890 3 701
[*,8,10,9]  1 189 2 536 3 722
[*,9,10,9]  1 370 2 636 3 574
[*,10,10,9]  1 961 2 108 3 774
[*,1,1,10]  1 880 2 899 3 562
[*,2,1,10]  1 403 2 926 3 753
[*,3,1,10]  1 169 2 939 3 638
[*,4,1,10]  1 73 2 282 3 967
[*,5,1,10]  1 837 2 147 3 335
[*,6,1,10]  1 747 2 968 3 240
[*,7,1,10]  1 381 2 957 3 269
[*,8,1,10]  1 882 2 84 3 895
[*,9,1,10]  1 64 2 167 3 670
[*,10,1,10]  1 217 2 389 3 216
[*,1,2,10]  1 349 2 43 3 990
[*,2,2,10]  1 539 2 512 3 910
[*,3,2,10]  1 602 2 23 3 310
[*,4,2,10]  1 632 2 530 3 653
[*,5,2,10]  1 282 2 615 3 756
[*,6,2,10]  1 895 2 393 3 505
[*,7,2,10]  1 200 2 866 3 158
[*,8,2,10]  1 399 2 309 3 30
[*,9,2,10]  1 540 2 985 3 824
[*,10,2,10]  1 192 2 963 3 106
[*,1,3,10]  1 474 2 969 3 93
[*,2,3,10]  1 252 2 308 3 758
[*,3,3,10]  1 990 2 353 3 598
[*,4,3,10]  1 484 2 877 3 137
[*,5,3,10]  1 515 2 5 3 39
[*,6,3,10]  1 960 2 316 3 158
[*,7,3,10]  1 301 2 698 3 377
[*,8,3,10]  1 848 2 118 3 823
[*,9,3,10]  1 224 2 465 3 578
[*,10,3,10]  1 186 2 650 3 191
[*,1,4,10]  1 499 2 447 3 122
[*,2,4,10]  1 400 2 372 3 271
[*,3,4,10]  1 946 2 497 3 115
[*,4,4,10]  1 641 2 62 3 959
[*,5,4,10]  1 482 2 644 3 940
[*,6,4,10]  1 314 2 479 3 110
[*,7,4,10]  1 750 2 17 3 364
[*,8,4,10]  1 337 2 900 3 960
[*,9,4,10]  1 591 2 922 3 51
[*,10,4,10]  1 413 2 608 3 412
[*,1,5,10]  1 932 2 763 3 550
[*,2,5,10]  1 111 2 633 3 282
[*,3,5,10]  1 665 2 837 3 576
[*,4,5,10]  1 563 2 810 3 880
[*,5,5,10]  1 1 2 939 3 436
[*,6,5,10]  1 704 2 672 3 375
[*,7,5,10]  1 301 2 160 3 459
[*,8,5,10]  1 877 2 542 3 125
[*,9,5,10]  1 604 2 405 3 868
[*,10,5,10]  1 498 2 759 3 655
[*,1,6,10]  1 354 2 429 3 355
[*,2,6,10]  1 836 2 729 3 529
[*,3,6,10]  1 454 2 752 3 122
[*,4,6,10]  1 523 2 989 3 71
[*,5,6,10]  1 920 2 508 3 241
[*,6,6,10]  1 675 2 788 3 529
[*,7,6,10]  1 464 2 343 3 925
[*,8,6,10]  1 644 2 786 3 869
[*,9,6,10]  1 295 2 67 3 931
[*,10,6,10]  1 877 2 951 3 223
[*,1,7,10]  1 830 2 243 3 508
[*,2,7,10]  1 778 2 893 3 39
[*,3,7,10]  1 560 2 764 3 577
[*,4,7,10]  1 348 2 41 3 978
[*,5,7,10]  1 886 2 123 3 603
[*,6,7,10]  1 686 2 633 3 514
[*,7,7,10]  1 606 2 531 3 568
[*,8,7,10]  1 724 2 679 3 235
[*,9,7,10]  1 32 2 504 3 688
[*,10,7,10]  1 324 2 360 3 870
[*,1,8,10]  1 557 2 655 3 99
[*,2,8,10]  1 471 2 650 3 940
[*,3,8,10]  1 43 2 323 3 289
[*,4,8,10]  1 835 2 181 3 281
[*,5,8,10]  1 588 2 404 3 942
[*,6,8,10]  1 742 2 954 3 931
[*,7,8,10]  1 512 2 498 3 518
[*,8,8,10]  1 116 2 598 3 631
[*,9,8,10]  1 249 2 693 3 731
[*,10,8,10]  1 578 2 731 3 324
[*,1,9,10]  1 81 2 236 3 379
[*,2,9,10]  1 496 2 830 3 86
[*,3,9,10]  1 402 2 759 3 316
[*,4,9,10]  1 831 2 960 3 295
[*,5,9,10]  1 534 2 969 3 771
[*,6,9,10]  1 292 2 96 3 61
[*,7,9,10]  1 886 2 9 3 405
[*,8,9,10]  1 196 2 494 3 732
[*,9,9,10]  1 649 2 272 3 363
[*,10,9,10]  1 68 2 169 3 321
[*,1,10,10]  1 986 2 114 3 924
[*,2,10,10]  1 996 2 583 3 109
[*,3,10,10]  1 52 2 754 3 842
[*,4,10,10]  1 107 2 978 3 25
[*,5,10,10]  1 725 2 53 3 133
[*,6,10,10]  1 807 2 665 3 398
[*,7,10,10]  1 111 2 756 3 259
[*,8,10,10]  1 70 2 990 3 801
[*,9,10,10]  1 887 2 157 3 655
[*,10,10,10]  1 704 2 739 3 149;

#param U :=  1 999.0 2 999.0 3 999.0;
#param pu :=  1 1000.0 2 1000.0 3 1000.0;
#param pl :=  1 1.0 2 1.0 3 1.0;
